POSCAR for generated by WannierTools
1.0
    0.000000    5.944396   -0.046505
    0.000000   -0.098751   28.048218
   32.981915    0.000000    0.000000
W     Se    
    20    40
Direct
    0.216909    0.310540    0.026459        W
    0.017073    0.313804    0.000000        W
    0.074662    0.347885    0.026459       Se
    0.342541    0.338576    0.000000       Se
    0.159321    0.276458    0.000000       Se
    0.420620    0.285766    0.026459       Se
    0.216909    0.310540    0.126459        W
    0.017073    0.313804    0.100000        W
    0.074662    0.347885    0.126459       Se
    0.342541    0.338576    0.100000       Se
    0.159321    0.276458    0.100000       Se
    0.420620    0.285766    0.126459       Se
    0.216909    0.310540    0.226459        W
    0.017073    0.313804    0.200000        W
    0.074662    0.347885    0.226459       Se
    0.342541    0.338576    0.200000       Se
    0.159321    0.276458    0.200000       Se
    0.420620    0.285766    0.226459       Se
    0.216909    0.310540    0.326459        W
    0.017073    0.313804    0.300000        W
    0.074662    0.347885    0.326459       Se
    0.342541    0.338576    0.300000       Se
    0.159321    0.276458    0.300000       Se
    0.420620    0.285766    0.326459       Se
    0.216909    0.310540    0.426459        W
    0.017073    0.313804    0.400000        W
    0.074662    0.347885    0.426459       Se
    0.342541    0.338576    0.400000       Se
    0.159321    0.276458    0.400000       Se
    0.420620    0.285766    0.426459       Se
    0.216909    0.310540    0.526459        W
    0.017073    0.313804    0.500000        W
    0.074662    0.347885    0.526459       Se
    0.342541    0.338576    0.500000       Se
    0.159321    0.276458    0.500000       Se
    0.420620    0.285766    0.526459       Se
    0.216909    0.310540    0.626459        W
    0.017073    0.313804    0.600000        W
    0.074662    0.347885    0.626459       Se
    0.342541    0.338576    0.600000       Se
    0.159321    0.276458    0.600000       Se
    0.420620    0.285766    0.626459       Se
    0.216909    0.310540    0.726459        W
    0.017073    0.313804    0.700000        W
    0.074662    0.347885    0.726459       Se
    0.342541    0.338576    0.700000       Se
    0.159321    0.276458    0.700000       Se
    0.420620    0.285766    0.726459       Se
    0.216909    0.310540    0.826459        W
    0.017073    0.313804    0.800000        W
    0.074662    0.347885    0.826459       Se
    0.342541    0.338576    0.800000       Se
    0.159321    0.276458    0.800000       Se
    0.420620    0.285766    0.826459       Se
    0.216909    0.310540    0.926459        W
    0.017073    0.313804    0.900000        W
    0.074662    0.347885    0.926459       Se
    0.342541    0.338576    0.900000       Se
    0.159321    0.276458    0.900000       Se
    0.420620    0.285766    0.926459       Se
