POSCAR for generated by WannierTools
1.0
    3.298192    0.000000    0.000000
    0.000000    5.944396   -0.046505
    0.000000   -0.098751   28.048218
W     Se    
     2     4
Direct
    0.264589    0.216909    0.310540        W
    0.000000    0.017073    0.313804        W
    0.264589    0.074662    0.347885       Se
    0.000000    0.342541    0.338576       Se
    0.000000    0.159321    0.276458       Se
    0.264589    0.420620    0.285766       Se
