Rotated POSCAR by SURFACE card in wt.in by WannierTools
1.0
    0.000000    5.944396   -0.046505
    0.000000   -0.098751   28.048218
    3.298192    0.000000    0.000000
W     Se    
     2     4
Direct
    0.216909    0.310540    0.264589        W
    0.017073    0.313804    0.000000        W
    0.074662    0.347885    0.264589       Se
    0.342541    0.338576    0.000000       Se
    0.159321    0.276458    0.000000       Se
    0.420620    0.285766    0.264589       Se
