POSCAR for slab defined by SURFACE card and Nslab and Vacuum_thickness_in_Angstrom in wt.in by WannierTools
1.0
    0.000000    5.944396   -0.046505
    0.000000   -0.098751   28.048218
   43.565459    0.000000    0.000000
W     Se    
    20    40
Cartesian
    8.425054    1.258728    8.700015        W
   11.723246    1.258728    8.700015        W
   15.021437    1.258728    8.700015        W
   18.319629    1.258728    8.700015        W
   21.617820    1.258728    8.700015        W
   24.916012    1.258728    8.700015        W
   28.214203    1.258728    8.700015        W
   31.512395    1.258728    8.700015        W
   34.810586    1.258728    8.700015        W
   38.108778    1.258728    8.700015        W
    7.552390    0.070499    8.800851        W
   10.850582    0.070499    8.800851        W
   14.148773    0.070499    8.800851        W
   17.446965    0.070499    8.800851        W
   20.745156    0.070499    8.800851        W
   24.043348    0.070499    8.800851        W
   27.341539    0.070499    8.800851        W
   30.639731    0.070499    8.800851        W
   33.937922    0.070499    8.800851        W
   37.236114    0.070499    8.800851        W
    8.425054    0.409469    9.754072       Se
   11.723246    0.409469    9.754072       Se
   15.021437    0.409469    9.754072       Se
   18.319629    0.409469    9.754072       Se
   21.617820    0.409469    9.754072       Se
   24.916012    0.409469    9.754072       Se
   28.214203    0.409469    9.754072       Se
   31.512395    0.409469    9.754072       Se
   34.810586    0.409469    9.754072       Se
   38.108778    0.409469    9.754072       Se
    7.552390    2.002762    9.480530       Se
   10.850582    2.002762    9.480530       Se
   14.148773    2.002762    9.480530       Se
   17.446965    2.002762    9.480530       Se
   20.745156    2.002762    9.480530       Se
   24.043348    2.002762    9.480530       Se
   27.341539    2.002762    9.480530       Se
   30.639731    2.002762    9.480530       Se
   33.937922    2.002762    9.480530       Se
   37.236114    2.002762    9.480530       Se
    7.552390    0.919764    7.746745       Se
   10.850582    0.919764    7.746745       Se
   14.148773    0.919764    7.746745       Se
   17.446965    0.919764    7.746745       Se
   20.745156    0.919764    7.746745       Se
   24.043348    0.919764    7.746745       Se
   27.341539    0.919764    7.746745       Se
   30.639731    0.919764    7.746745       Se
   33.937922    0.919764    7.746745       Se
   37.236114    0.919764    7.746745       Se
    8.425054    2.472109    7.995677       Se
   11.723246    2.472109    7.995677       Se
   15.021437    2.472109    7.995677       Se
   18.319629    2.472109    7.995677       Se
   21.617820    2.472109    7.995677       Se
   24.916012    2.472109    7.995677       Se
   28.214203    2.472109    7.995677       Se
   31.512395    2.472109    7.995677       Se
   34.810586    2.472109    7.995677       Se
   38.108778    2.472109    7.995677       Se
