POSCAR for generated by WannierTools
1.0
   -2.069000   -3.583614    0.000000
    2.069000   -3.583614    0.000000
    0.000000   14.334450   57.280002
Bi    Se    
    12    18
Direct
    0.399000    0.399000    0.116167       Bi
    0.601000    0.601000    0.050500       Bi
    0.000000   -0.000000    0.083333       Se
    0.206000    0.206000    0.019667       Se
    0.794000    0.794000    0.147000       Se
    0.399000    0.399000    0.282833       Bi
    0.601000    0.601000    0.217167       Bi
    0.000000   -0.000000    0.250000       Se
    0.206000    0.206000    0.186333       Se
    0.794000    0.794000    0.313667       Se
    0.399000    0.399000    0.449500       Bi
    0.601000    0.601000    0.383833       Bi
    0.000000   -0.000000    0.416667       Se
    0.206000    0.206000    0.353000       Se
    0.794000    0.794000    0.480333       Se
    0.399000    0.399000    0.616167       Bi
    0.601000    0.601000    0.550500       Bi
    0.000000   -0.000000    0.583333       Se
    0.206000    0.206000    0.519667       Se
    0.794000    0.794000    0.647000       Se
    0.399000    0.399000    0.782833       Bi
    0.601000    0.601000    0.717167       Bi
    0.000000   -0.000000    0.750000       Se
    0.206000    0.206000    0.686333       Se
    0.794000    0.794000    0.813667       Se
    0.399000    0.399000    0.949500       Bi
    0.601000    0.601000    0.883833       Bi
    0.000000   -0.000000    0.916667       Se
    0.206000    0.206000    0.853000       Se
    0.794000    0.794000    0.980333       Se
