POSCAR for slab defined by SURFACE card and Nslab and Vacuum_thickness_in_Angstrom in wt.in by WannierTools
1.0
   -2.069000   -3.583614    0.000000
    2.069000   -3.583614    0.000000
    0.000000   16.983006   67.863546
Bi    Se    
    12    18
Cartesian
    0.000000    0.292196   12.594972       Bi
    0.000000    2.681271   22.141639       Bi
    0.000000    5.070346   31.688306       Bi
    0.000000    7.459421   41.234973       Bi
    0.000000    9.848496   50.781640       Bi
    0.000000   12.237571   60.328307       Bi
    0.000000   -2.096879    8.833586       Bi
    0.000000    0.292196   18.380253       Bi
    0.000000    2.681271   27.926920       Bi
    0.000000    5.070346   37.473587       Bi
    0.000000    7.459421   47.020254       Bi
    0.000000    9.848496   56.566921       Bi
    0.000000    2.681273   10.714279       Se
    0.000000    5.070348   20.260946       Se
    0.000000    7.459423   29.807613       Se
    0.000000    9.848498   39.354280       Se
    0.000000   12.237573   48.900947       Se
    0.000000   14.626648   58.447614       Se
    0.000000    0.292197    7.067452       Se
    0.000000    2.681272   16.614119       Se
    0.000000    5.070347   26.160786       Se
    0.000000    7.459422   35.707453       Se
    0.000000    9.848497   45.254120       Se
    0.000000   12.237572   54.800787       Se
    0.000000   -2.096880   14.361106       Se
    0.000000    0.292195   23.907773       Se
    0.000000    2.681270   33.454440       Se
    0.000000    5.070345   43.001107       Se
    0.000000    7.459420   52.547774       Se
    0.000000    9.848495   62.094441       Se
