Rotated POSCAR by SURFACE card in wt.in by WannierTools
1.0
    0.000000    0.000000    1.000000
    1.000000    0.000000    0.000000
    0.000000    1.000000    0.000000
A     
     1
Direct
    0.000000    0.000000    0.000000        A
