POSCAR for generated by WannierTools
1.0
    1.000000    0.000000    0.000000
    0.000000    1.000000    0.000000
    0.000000    0.000000    1.000000
A     
     1
Direct
    0.000000    0.000000    0.000000        A
