POSCAR for generated by WannierTools
1.0
    0.000000    0.000000    1.000000
    1.000000    0.000000    0.000000
    0.000000   10.000000    0.000000
A     
    10
Direct
    0.000000    0.000000    0.000000        A
    0.000000    0.000000    0.100000        A
    0.000000    0.000000    0.200000        A
    0.000000    0.000000    0.300000        A
    0.000000    0.000000    0.400000        A
    0.000000    0.000000    0.500000        A
    0.000000    0.000000    0.600000        A
    0.000000    0.000000    0.700000        A
    0.000000    0.000000    0.800000        A
    0.000000    0.000000    0.900000        A
