POSCAR for slab defined by SURFACE card and Nslab and Vacuum_thickness_in_Angstrom in wt.in by WannierTools
1.0
    0.000000    0.000000    1.000000
    1.000000    0.000000    0.000000
    0.000000   20.583544    0.000000
A     
    10
Cartesian
    0.000000    6.241772    0.000000        A
    0.000000    7.241772    0.000000        A
    0.000000    8.241772    0.000000        A
    0.000000    9.241772    0.000000        A
    0.000000   10.241772    0.000000        A
    0.000000   11.241772    0.000000        A
    0.000000   12.241772    0.000000        A
    0.000000   13.241772    0.000000        A
    0.000000   14.241772    0.000000        A
    0.000000   15.241772    0.000000        A
