POSCAR for generated by WannierTools
1.0
    3.437000    0.000000    0.000000
    0.000000    3.437000    0.000000
   -1.718500   -1.718500    5.828000
Ta    As    
     2     2
Direct
    0.250000    0.750000    0.616000       Ta
    0.000000    0.000000    0.116000       Ta
    0.667000    0.167000    0.450000       As
    0.417000    0.417000    0.950000       As
