POSCAR for generated by WannierTools
1.0
    3.437000    0.000000    0.000000
    0.000000    3.437000    0.000000
  -17.185000  -17.185000   58.280000
Ta    As    
    20    20
Direct
    0.250000    0.750000    0.050000       Ta
    0.000000    0.000000    0.000000       Ta
    0.667000    0.167000    0.033400       As
    0.417000    0.417000    0.083400       As
    0.250000    0.750000    0.150000       Ta
    0.000000    0.000000    0.100000       Ta
    0.667000    0.167000    0.133400       As
    0.417000    0.417000    0.183400       As
    0.250000    0.750000    0.250000       Ta
    0.000000    0.000000    0.200000       Ta
    0.667000    0.167000    0.233400       As
    0.417000    0.417000    0.283400       As
    0.250000    0.750000    0.350000       Ta
    0.000000    0.000000    0.300000       Ta
    0.667000    0.167000    0.333400       As
    0.417000    0.417000    0.383400       As
    0.250000    0.750000    0.450000       Ta
    0.000000    0.000000    0.400000       Ta
    0.667000    0.167000    0.433400       As
    0.417000    0.417000    0.483400       As
    0.250000    0.750000    0.550000       Ta
    0.000000    0.000000    0.500000       Ta
    0.667000    0.167000    0.533400       As
    0.417000    0.417000    0.583400       As
    0.250000    0.750000    0.650000       Ta
    0.000000    0.000000    0.600000       Ta
    0.667000    0.167000    0.633400       As
    0.417000    0.417000    0.683400       As
    0.250000    0.750000    0.750000       Ta
    0.000000    0.000000    0.700000       Ta
    0.667000    0.167000    0.733400       As
    0.417000    0.417000    0.783400       As
    0.250000    0.750000    0.850000       Ta
    0.000000    0.000000    0.800000       Ta
    0.667000    0.167000    0.833400       As
    0.417000    0.417000    0.883400       As
    0.250000    0.750000    0.950000       Ta
    0.000000    0.000000    0.900000       Ta
    0.667000    0.167000    0.933400       As
    0.417000    0.417000    0.983400       As
