POSCAR for slab defined by SURFACE card and Nslab and Vacuum_thickness_in_Angstrom in wt.in by WannierTools
1.0
    3.437000    0.000000    0.000000
    0.000000    3.437000    0.000000
  -20.305765  -20.305765   68.863544
Ta    As    
    20    20
Cartesian
   -1.759729   -0.041229    8.881820       Ta
   -3.478229   -1.759729   14.709820       Ta
   -5.196729   -3.478229   20.537820       Ta
   -6.915229   -5.196729   26.365820       Ta
   -8.633729   -6.915229   32.193820       Ta
  -10.352229   -8.633729   38.021820       Ta
  -12.070729  -10.352229   43.849820       Ta
  -13.789229  -12.070729   49.677820       Ta
  -15.507729  -13.789229   55.505820       Ta
  -17.226229  -15.507729   61.333820       Ta
   -1.759729   -1.759729    5.967820       Ta
   -3.478229   -3.478229   11.795820       Ta
   -5.196729   -5.196729   17.623820       Ta
   -6.915229   -6.915229   23.451820       Ta
   -8.633729   -8.633729   29.279820       Ta
  -10.352229  -10.352229   35.107820       Ta
  -12.070729  -12.070729   40.935820       Ta
  -13.789229  -13.789229   46.763820       Ta
  -15.507729  -15.507729   52.591820       Ta
  -17.226229  -17.226229   58.419820       Ta
   -0.041229   -1.759729    7.914372       As
   -1.759729   -3.478229   13.742372       As
   -3.478229   -5.196729   19.570372       As
   -5.196729   -6.915229   25.398372       As
   -6.915229   -8.633729   31.226372       As
   -8.633729  -10.352229   37.054372       As
  -10.352229  -12.070729   42.882372       As
  -12.070729  -13.789229   48.710372       As
  -13.789229  -15.507729   54.538372       As
  -15.507729  -17.226229   60.366372       As
   -1.759729   -1.759729   10.828372       As
   -3.478229   -3.478229   16.656372       As
   -5.196729   -5.196729   22.484372       As
   -6.915229   -6.915229   28.312372       As
   -8.633729   -8.633729   34.140372       As
  -10.352229  -10.352229   39.968372       As
  -12.070729  -12.070729   45.796372       As
  -13.789229  -13.789229   51.624372       As
  -15.507729  -15.507729   57.452372       As
  -17.226229  -17.226229   63.280372       As
